200
400
320
320
320
317
317
317
315
314
310
310
309
307
307
306
304
304
303
302
298
297
297
296
295
295
294
294
292
292
292
288
288
287
287
284
284
281
278
276
275
274
271
271
271
268
267
267
266
266
263
262
261
259
258
257
257
254
254
253
252
249
246
244
243
243
242
241
240
239
236
235
235
234
233
233
233
232
231
228
227
226
226
225
225
223
222
221
219
218
215
214
210
210
210
209
209
208
208
207
205
205
204
204
203
202
201
200
199
195
195
195
193
193
190
190
190
190
189
189
189
188
188
187
187
184
184
183
182
182
180
174
173
173
169
166
164
160
159
158
157
157
155
151
150
150
149
148
146
145
143
142
141
141
141
140
139
139
137
136
134
131
131
130
128
126
126
125
124
124
123
121
120
117
116
115
113
113
112
111
110
109
108
107
107
106
102
99
99
98
97
95
94
94
94
93
92
88
86
83
82
80
